NAME          
ROWS
 N  OBJ
 L  c1
 L  c2
COLUMNS
    MARKER    'MARKER'                 'INTORG'
    x[1]      c1        256
    x[1]      c2        711
    x[1]      OBJ       -343
    x[2]      c1        963
    x[2]      c2        981
    x[2]      OBJ       -567
    x[3]      c1        553
    x[3]      c2        958
    x[3]      OBJ       -859
    x[4]      c1        913
    x[4]      c2        622
    x[4]      OBJ       -180
    x[5]      c1        212
    x[5]      c2        550
    x[5]      OBJ       -73
    x[6]      c1        918
    x[6]      c2        821
    x[6]      OBJ       -197
    x[7]      c1        668
    x[7]      c2        307
    x[7]      OBJ       -973
    x[8]      c1        840
    x[8]      c2        988
    x[8]      OBJ       -614
    x[9]      c1        549
    x[9]      c2        994
    x[9]      OBJ       -193
    x[10]     c1        356
    x[10]     c2        32
    x[10]     OBJ       -592
    x[11]     c1        989
    x[11]     c2        663
    x[11]     OBJ       -562
    x[12]     c1        462
    x[12]     c2        136
    x[12]     OBJ       -306
    x[13]     c1        345
    x[13]     c2        906
    x[13]     OBJ       -199
    x[14]     c1        797
    x[14]     c2        439
    x[14]     OBJ       -919
    x[15]     c1        57
    x[15]     c2        145
    x[15]     OBJ       -458
RHS
    rhs       c1        4439
    rhs       c2        4626
RANGES
BOUNDS
 BV bounds    x[1]
 BV bounds    x[2]
 BV bounds    x[3]
 BV bounds    x[4]
 BV bounds    x[5]
 BV bounds    x[6]
 BV bounds    x[7]
 BV bounds    x[8]
 BV bounds    x[9]
 BV bounds    x[10]
 BV bounds    x[11]
 BV bounds    x[12]
 BV bounds    x[13]
 BV bounds    x[14]
 BV bounds    x[15]
ENDATA
